decision_x1=[0,2];
decision_x2=[0,2];
decision_x3=[0,2];
decision_x4=[0,2];
decision_x5=[0,2];
random_y1=[0,2];
constraint_x3_x2=[
0,0,1.5|
0,1,0.71|
0,2,8.7|
1,0,3.1|
1,1,2.5|
1,2,3.8|
2,0,1.8|
2,1,0.94|
2,2,3.1|
];
constraint_x4_x1=[
0,0,2.8|
0,1,4.7|
0,2,8.3|
1,0,1|
1,1,5.2|
1,2,2.4|
2,0,2.7|
2,1,2.4|
2,2,4|
];
constraint_x4_x2=[
0,0,3.7|
0,1,8.4|
0,2,8.3|
1,0,0.61|
1,1,2.5|
1,2,6.3|
2,0,5.8|
2,1,6.9|
2,2,0.56|
];
constraint_x4_x3=[
0,0,0.17|
0,1,2.2|
0,2,7.5|
1,0,7.1|
1,1,3|
1,2,8.3|
2,0,7.1|
2,1,6.3|
2,2,5.4|
];
constraint_x5_x1=[
0,0,3.2|
0,1,4.7|
0,2,9.4|
1,0,5|
1,1,6.7|
1,2,9.5|
2,0,7|
2,1,7.2|
2,2,1.6|
];
constraint_x1_y1=[
0,0,3.9|
0,1,5.5|
0,2,1.7|
1,0,7.8|
1,1,4.3|
1,2,1.5|
2,0,8.2|
2,1,6.3|
2,2,0.83|
];
initial_distribution_y1=[0.036,0.37,0.6];
transition_y1=[
0.31,0.35,0.35|
0.39,0.37,0.24|
0.68,0.28,0.041|
];
